\ This file has been generated by DOcplex
\ ENCODING=ISO-8859-1
\Problem name: random_problem.lp

Minimize
 obj: 73 x0 + 78 x1 + 98 x2 + 56 x3 + 38 x4 + x5 + 36 x6 + 98 x7 + 63 x8 + 64 x9
      + 60 x10 + 79 x11 + 52 x12 + 95 x13 + 17 x14 + 98 x15 + 75 x16 + 69 x17
      + 80 x18 + 29 x19
Subject To
 c0: x1 + x4 + x8 + x10 + x11 + x12 + x14 = 1
 c1: x0 + x3 + x6 + x12 + x15 + x16 = 1
 c2: x6 + x8 + x10 + x11 + x14 + x16 + x17 + x18 = 1
 c3: x3 + x5 + x7 + x8 + x9 + x10 + x11 + x14 + x19 = 1
 c4: x5 + x7 + x8 + x18 = 1
 c5: x2 + x5 + x6 + x8 + x10 + x13 + x16 + x17 + x18 + x19 = 1

Bounds
 0 <= x0 <= 1
 0 <= x1 <= 1
 0 <= x2 <= 1
 0 <= x3 <= 1
 0 <= x4 <= 1
 0 <= x5 <= 1
 0 <= x6 <= 1
 0 <= x7 <= 1
 0 <= x8 <= 1
 0 <= x9 <= 1
 0 <= x10 <= 1
 0 <= x11 <= 1
 0 <= x12 <= 1
 0 <= x13 <= 1
 0 <= x14 <= 1
 0 <= x15 <= 1
 0 <= x16 <= 1
 0 <= x17 <= 1
 0 <= x18 <= 1
 0 <= x19 <= 1

Binaries
 x0 x1 x2 x3 x4 x5 x6 x7 x8 x9 x10 x11 x12 x13 x14 x15 x16 x17 x18 x19
End
